p cnf 35 56
-18 0
30 0
-26 0
-22 0
-3 2 -21 5 0
8 -2 0
8 14 15 0
8 34 -22 -33 0
17 0
-6 29 -18 -17 0
-23 18 -10 -9 0
8 -35 0
24 28 30 0
2 4 14 0
-7 5 -23 0
-22 -20 -17 0
2 13 -9 0
3 0
-15 9 0
34 35 8 21 -34 0
30 -17 0
1 4 0
-31 -5 -19 -33 0
-21 23 22 7 0
-18 17 26 -3 -33 0
1 -22 21 0
1 20 -34 0
2 10 18 -9 25 0
3 -13 -9 -7 -3 0
21 0
-35 7 0
17 35 21 0
28 6 0
27 0
5 -23 -11 27 29 0
20 30 0
-24 21 14 0
32 0
-17 0
5 -22 18 26 -5 0
-28 0
23 0
-24 0
22 -9 0
-7 18 -13 0
-21 0
35 11 0
16 6 15 0
-28 -20 31 0
25 21 0
-3 0
-15 -13 0
-33 0
16 -30 -11 0
4 9 -19 -7 29 0
-16 30 0
